SECTION Graph
Nodes 353
Edges 608
E 1 2 5
E 2 3 5
E 3 4 5
E 4 5 5
E 5 6 5
E 6 7 5
E 7 8 5
E 9 10 5
E 10 11 5
E 11 12 5
E 12 13 5
E 13 14 5
E 14 15 5
E 15 16 5
E 16 17 5
E 17 18 5
E 18 19 5
E 19 20 5
E 1 21 13
E 2 22 13
E 3 23 13
E 4 24 13
E 5 25 13
E 6 26 13
E 7 27 13
E 8 28 13
E 9 29 13
E 10 30 13
E 11 31 13
E 12 32 13
E 13 33 13
E 14 34 13
E 15 35 13
E 16 36 13
E 17 37 13
E 18 38 13
E 19 39 13
E 20 40 13
E 21 22 5
E 22 23 5
E 23 24 5
E 24 25 5
E 25 26 5
E 26 27 5
E 27 28 5
E 29 30 5
E 30 31 5
E 31 32 5
E 32 33 5
E 33 34 5
E 34 35 5
E 35 36 5
E 36 37 5
E 37 38 5
E 38 39 5
E 39 40 5
E 21 41 13
E 22 42 13
E 23 43 13
E 24 44 13
E 25 45 13
E 26 46 13
E 27 47 13
E 28 48 13
E 29 58 13
E 30 59 13
E 31 60 13
E 32 61 13
E 33 62 13
E 34 63 13
E 35 64 13
E 36 65 13
E 37 66 13
E 39 68 13
E 40 69 13
E 41 42 5
E 42 43 5
E 43 44 5
E 44 45 5
E 45 46 5
E 46 47 5
E 47 48 5
E 48 49 5
E 49 50 5
E 50 51 5
E 51 52 5
E 52 53 5
E 53 54 5
E 54 55 5
E 55 56 5
E 56 57 5
E 57 58 5
E 58 59 5
E 59 60 5
E 60 61 5
E 61 62 5
E 62 63 5
E 63 64 5
E 64 65 5
E 65 66 5
E 66 67 5
E 67 68 5
E 68 69 5
E 41 70 13
E 43 71 13
E 44 72 13
E 45 73 13
E 46 74 13
E 47 75 13
E 48 76 13
E 49 77 13
E 50 78 13
E 51 79 13
E 52 80 13
E 53 81 13
E 54 82 13
E 55 83 13
E 56 84 13
E 57 85 13
E 58 86 13
E 59 87 13
E 60 88 13
E 61 89 13
E 62 90 13
E 63 91 13
E 64 92 13
E 65 93 13
E 66 94 13
E 67 95 13
E 68 96 13
E 69 97 13
E 71 72 5
E 72 73 5
E 73 74 5
E 74 75 5
E 75 76 5
E 76 77 5
E 77 78 5
E 78 79 5
E 79 80 5
E 80 81 5
E 81 82 5
E 82 83 5
E 83 84 5
E 84 85 5
E 85 86 5
E 86 87 5
E 87 88 5
E 88 89 5
E 89 90 5
E 90 91 5
E 91 92 5
E 92 93 5
E 93 94 5
E 94 95 5
E 95 96 5
E 96 97 5
E 70 98 13
E 71 99 13
E 73 100 13
E 74 101 13
E 75 102 13
E 77 103 13
E 78 104 13
E 79 105 13
E 80 106 13
E 81 107 13
E 82 108 13
E 83 109 13
E 84 110 13
E 85 111 13
E 86 112 13
E 87 113 13
E 88 114 13
E 89 115 13
E 90 116 13
E 91 117 13
E 92 118 13
E 93 119 13
E 94 120 13
E 95 121 13
E 96 122 13
E 97 123 13
E 100 101 5
E 101 102 5
E 103 104 5
E 104 105 5
E 105 106 5
E 106 107 5
E 107 108 5
E 108 109 5
E 109 110 5
E 110 111 5
E 111 112 5
E 112 113 5
E 113 114 5
E 114 115 5
E 115 116 5
E 116 117 5
E 117 118 5
E 118 119 5
E 119 120 5
E 120 121 5
E 121 122 5
E 122 123 5
E 98 124 13
E 99 126 13
E 100 127 13
E 101 128 13
E 102 129 13
E 103 130 13
E 104 131 13
E 105 132 13
E 106 133 13
E 107 134 13
E 108 135 13
E 109 136 13
E 110 137 13
E 111 138 13
E 112 139 13
E 113 140 13
E 114 141 13
E 115 142 13
E 116 143 13
E 118 145 13
E 120 147 13
E 122 148 13
E 123 149 13
E 124 125 5
E 125 126 5
E 127 128 5
E 128 129 5
E 130 131 5
E 131 132 5
E 132 133 5
E 133 134 5
E 134 135 5
E 135 136 5
E 136 137 5
E 137 138 5
E 138 139 5
E 139 140 5
E 140 141 5
E 141 142 5
E 142 143 5
E 143 144 5
E 144 145 5
E 145 146 5
E 146 147 5
E 148 149 5
E 124 150 13
E 125 151 13
E 126 152 13
E 127 154 13
E 128 155 13
E 129 156 13
E 130 158 13
E 131 159 13
E 132 160 13
E 133 161 13
E 134 162 13
E 135 163 13
E 136 164 13
E 137 165 13
E 138 166 13
E 139 167 13
E 140 168 13
E 141 169 13
E 142 170 13
E 143 171 13
E 144 172 13
E 145 173 13
E 146 174 13
E 147 175 13
E 148 176 13
E 150 151 5
E 151 152 5
E 152 153 5
E 153 154 5
E 154 155 5
E 155 156 5
E 156 157 5
E 157 158 5
E 158 159 5
E 159 160 5
E 160 161 5
E 161 162 5
E 162 163 5
E 163 164 5
E 164 165 5
E 165 166 5
E 166 167 5
E 167 168 5
E 168 169 5
E 169 170 5
E 170 171 5
E 171 172 5
E 172 173 5
E 173 174 5
E 174 175 5
E 150 177 13
E 151 178 13
E 152 179 13
E 153 180 13
E 154 181 13
E 155 182 13
E 156 183 13
E 157 184 13
E 158 185 13
E 159 186 13
E 160 187 13
E 161 188 13
E 162 189 13
E 163 190 13
E 164 191 13
E 165 192 13
E 166 193 13
E 167 194 13
E 168 195 13
E 169 196 13
E 170 197 13
E 171 198 13
E 172 199 13
E 173 200 13
E 174 201 13
E 175 202 13
E 176 204 13
E 177 178 5
E 178 179 5
E 179 180 5
E 180 181 5
E 181 182 5
E 182 183 5
E 183 184 5
E 184 185 5
E 185 186 5
E 186 187 5
E 187 188 5
E 188 189 5
E 189 190 5
E 190 191 5
E 191 192 5
E 192 193 5
E 193 194 5
E 194 195 5
E 195 196 5
E 196 197 5
E 197 198 5
E 198 199 5
E 199 200 5
E 200 201 5
E 201 202 5
E 202 203 5
E 203 204 5
E 177 205 13
E 179 206 13
E 180 207 13
E 181 208 13
E 183 209 13
E 184 210 13
E 194 211 13
E 195 212 13
E 196 213 13
E 197 214 13
E 198 215 13
E 199 216 13
E 200 217 13
E 201 218 13
E 202 219 13
E 203 220 13
E 204 221 13
E 206 207 5
E 207 208 5
E 209 210 5
E 211 212 5
E 212 213 5
E 213 214 5
E 214 215 5
E 215 216 5
E 216 217 5
E 217 218 5
E 218 219 5
E 219 220 5
E 220 221 5
E 205 222 13
E 206 223 13
E 208 224 13
E 209 225 13
E 210 226 13
E 211 227 13
E 212 228 13
E 214 229 13
E 215 230 13
E 216 231 13
E 217 232 13
E 218 233 13
E 219 234 13
E 220 235 13
E 221 236 13
E 225 226 5
E 227 228 5
E 229 230 5
E 230 231 5
E 231 232 5
E 232 233 5
E 233 234 5
E 234 235 5
E 235 236 5
E 222 237 13
E 223 239 13
E 224 240 13
E 225 242 13
E 226 243 13
E 227 244 13
E 228 245 13
E 229 246 13
E 230 247 13
E 231 248 13
E 232 249 13
E 233 250 13
E 234 251 13
E 235 252 13
E 236 253 13
E 237 238 5
E 238 239 5
E 240 241 5
E 241 242 5
E 242 243 5
E 244 245 5
E 246 247 5
E 247 248 5
E 248 249 5
E 249 250 5
E 250 251 5
E 251 252 5
E 252 253 5
E 253 254 5
E 237 255 13
E 238 256 13
E 239 257 13
E 240 259 13
E 241 260 13
E 242 261 13
E 243 262 13
E 244 263 13
E 245 264 13
E 246 266 13
E 247 267 13
E 248 268 13
E 249 269 13
E 250 270 13
E 251 271 13
E 252 272 13
E 253 273 13
E 254 274 13
E 255 256 5
E 256 257 5
E 257 258 5
E 258 259 5
E 259 260 5
E 260 261 5
E 261 262 5
E 263 264 5
E 264 265 5
E 265 266 5
E 266 267 5
E 267 268 5
E 268 269 5
E 269 270 5
E 270 271 5
E 271 272 5
E 272 273 5
E 273 274 5
E 255 275 13
E 257 276 13
E 258 277 13
E 259 278 13
E 260 279 13
E 261 280 13
E 262 281 13
E 263 291 13
E 264 292 13
E 265 293 13
E 266 294 13
E 268 295 13
E 269 296 13
E 270 297 13
E 271 298 13
E 273 300 13
E 274 301 13
E 276 277 5
E 277 278 5
E 278 279 5
E 279 280 5
E 280 281 5
E 281 282 5
E 282 283 5
E 283 284 5
E 284 285 5
E 285 286 5
E 286 287 5
E 287 288 5
E 288 289 5
E 289 290 5
E 290 291 5
E 291 292 5
E 292 293 5
E 293 294 5
E 295 296 5
E 296 297 5
E 297 298 5
E 298 299 5
E 299 300 5
E 300 301 5
E 275 302 13
E 276 303 13
E 277 304 13
E 278 305 13
E 279 306 13
E 281 307 13
E 282 308 13
E 283 309 13
E 284 310 13
E 285 311 13
E 286 312 13
E 287 313 13
E 288 314 13
E 289 315 13
E 290 316 13
E 291 317 13
E 292 318 13
E 293 319 13
E 294 320 13
E 295 321 13
E 296 322 13
E 297 323 13
E 298 324 13
E 299 325 13
E 300 326 13
E 301 327 13
E 303 304 5
E 304 305 5
E 305 306 5
E 307 308 5
E 308 309 5
E 309 310 5
E 310 311 5
E 311 312 5
E 312 313 5
E 313 314 5
E 314 315 5
E 315 316 5
E 316 317 5
E 317 318 5
E 318 319 5
E 319 320 5
E 321 322 5
E 322 323 5
E 323 324 5
E 324 325 5
E 325 326 5
E 326 327 5
E 302 328 13
E 303 330 13
E 304 331 13
E 306 332 13
E 307 333 13
E 308 334 13
E 309 335 13
E 310 336 13
E 311 337 13
E 312 338 13
E 313 339 13
E 314 340 13
E 316 341 13
E 317 342 13
E 318 343 13
E 319 344 13
E 320 345 13
E 321 347 13
E 322 348 13
E 323 349 13
E 324 350 13
E 325 351 13
E 326 352 13
E 327 353 13
E 328 329 5
E 329 330 5
E 330 331 5
E 333 334 5
E 334 335 5
E 335 336 5
E 336 337 5
E 337 338 5
E 338 339 5
E 339 340 5
E 341 342 5
E 342 343 5
E 343 344 5
E 344 345 5
E 345 346 5
E 346 347 5
E 347 348 5
E 348 349 5
E 349 350 5
E 350 351 5
E 351 352 5
E 352 353 5
END

SECTION Terminals
Terminals 11
T 1
T 14
T 63
T 64
T 68
T 89
T 91
T 172
T 248
T 249
T 321
END

EOF
